19 29 28 59 35 18 97 5 70 74 16 37 66 38 78 30 65 48 49 8 50 0 24 36 44 58 11 73 22 6 57 2 69 81 62 47 15 85 46 64 89 68 31 23 54 25 96 51 34 43 14 42 9 53 71 72 1 61 17 88 92 13 75 32 84 52 55 80 93 95 20 21 76 56 10 86 12 94 3 63 79 4 33 27 90 40 45 26 82 83 7 67 91 41 39 99 77 98 60 87 

